int NumberPatients = 171
int NumberOfRooms = 16
int NumberSurgeons = 20
int NumberOfDays = 6
Duration = [103,103,85,47,98,74,32,72,61,119,103,53,98,159,103,32,119,81,32,103,60,30,201,31,201,32,105,120,32,105,66,159,46,260,131,61,80,85,47,105,66,34,98,47,31,74,103,103,87,32,60,75,30,210,103,115,46,98,32,119,68,32,130,234,32,119,119,119,53,50,93,47,95,105,119,32,47,32,95,101,66,46,72,98,131,103,93,119,132,260,98,32,98,105,117,98,119,75,131,39,98,98,267,47,60,130,217,103,93,85,66,140,75,32,107,66,31,58,210,50,105,47,31,78,85,78,130,103,88,72,59,85,32,58,80,38,260,47,60,103,201,47,114,101,238,112,39,67,47,264,47,93,31,58,53,68,264,71,119,103,66,60,138,39,119,47,58,166,72,146,138];
Priority = [0,0,0,0,0,0,0,0,0,0,0,0,0,0,0,1,0,0,0,0,0,0,0,0,1,0,0,0,0,0,0,0,0,0,0,0,0,0,0,0,0,0,0,0,0,0,0,0,0,0,0,0,0,0,0,0,0,0,0,0,0,0,0,0,0,0,0,0,0,0,0,0,0,0,0,0,0,0,0,0,0,0,0,0,0,0,0,0,0,0,0,0,0,0,0,0,0,0,0,0,0,0,0,0,0,0,0,0,0,0,0,0,0,0,0,0,0,0,0,0,0,0,0,0,0,0,0,0,0,0,0,0,0,0,0,0,0,0,0,0,0,0,0,0,0,0,0,0,0,0,0,0,0,0,0,0,0,0,0,0,0,0,0,0,0,0,0,1,0,0,0];
Waiting = [84,59,37,445,317,169,422,80,417,25,199,74,151,228,456,49,102,57,87,80,375,178,35,191,158,428,59,43,141,39,141,200,107,155,60,84,24,163,214,49,190,80,84,37,242,354,127,214,141,178,94,32,37,459,417,39,228,375,141,121,169,275,70,284,284,221,305,39,410,84,50,351,45,49,178,430,102,39,44,37,155,259,53,66,43,141,107,80,107,67,604,45,32,417,52,480,108,256,36,35,106,58,65,80,44,462,60,99,487,107,37,57,70,46,205,37,57,45,59,135,35,39,39,410,49,144,52,52,32,39,487,199,207,25,30,53,211,151,213,144,24,141,155,46,60,277,60,65,106,52,37,119,127,186,39,445,518,67,389,102,93,280,79,269,172,51,171,60,65,141,74];
Surgeon = [2,8,3,15,2,1,8,5,2,7,4,3,3,5,3,3,7,6,2,3,11,4,1,10,5,5,1,3,4,7,3,3,6,3,5,5,12,5,2,4,5,4,4,1,5,1,2,1,6,4,6,6,3,2,3,7,5,6,1,8,2,3,5,3,5,6,3,5,8,3,4,5,2,1,5,4,5,3,8,3,3,1,6,1,4,1,3,3,6,5,2,4,3,2,9,4,1,8,10,1,3,1,5,7,1,2,6,4,4,1,11,12,5,3,11,6,13,5,15,2,5,6,8,10,8,5,8,6,1,4,1,3,1,7,3,1,3,5,5,3,4,10,7,2,5,5,1,10,1,5,2,3,4,1,1,3,9,1,4,8,1,6,12,6,6,5,6,2,8,1,12];
BlockAvailability = [[[0,0],[0,0],[0,0],[0,0],[0,0],[0,1],[0,1],[0,1],[0,1],[0,0],[0,0],[0,0],[1,0],[0,0],[0,0],[0,0]],[[0,1],[0,1],[0,0],[0,0],[0,1],[0,0],[0,0],[0,0],[0,0],[0,0],[0,0],[0,1],[0,0],[1,0],[0,0],[0,0]],[[1,0],[1,0],[0,0],[0,0],[1,0],[0,0],[0,0],[0,0],[1,0],[0,0],[0,1],[0,0],[0,0],[0,0],[1,0],[0,0]],[[0,0],[0,0],[0,0],[0,1],[1,0],[1,0],[1,0],[0,1],[1,0],[0,0],[0,0],[1,0],[0,0],[0,1],[1,0],[1,0]],[[1,0],[1,1],[1,1],[0,1],[0,0],[0,1],[0,1],[0,1],[0,0],[0,0],[1,0],[0,0],[0,0],[0,1],[0,0],[0,0]],[[1,0],[0,0],[0,0],[0,0],[1,0],[0,1],[0,0],[0,1],[0,0],[0,0],[0,0],[0,0],[0,0],[0,0],[1,0],[1,0]]];
SurgeonAvailability = [[[1,0],[0,1],[0,1],[1,1],[1,0],[1,1]],[[1,1],[1,1],[1,1],[1,1],[1,0],[1,1]],[[1,0],[1,0],[1,1],[1,1],[1,1],[1,1]],[[1,0],[1,0],[1,1],[1,1],[1,1],[1,1]],[[1,1],[1,0],[0,0],[1,1],[1,1],[1,1]],[[1,1],[1,1],[0,1],[1,1],[1,1],[1,1]],[[1,1],[1,1],[0,0],[0,0],[0,0],[1,0]],[[1,1],[1,1],[1,1],[1,1],[1,0],[1,0]],[[1,0],[1,1],[1,1],[1,1],[1,1],[1,0]],[[1,0],[1,1],[0,1],[1,1],[1,1],[1,1]],[[1,1],[1,1],[1,1],[1,0],[1,1],[1,1]],[[1,1],[0,0],[0,1],[0,1],[1,1],[1,1]],[[0,1],[1,1],[1,1],[1,0],[0,1],[1,1]],[[1,1],[1,1],[1,1],[1,0],[1,0],[0,1]],[[1,1],[1,1],[1,1],[1,1],[1,1],[0,0]],[[1,1],[0,1],[1,1],[0,1],[1,1],[0,1]],[[0,1],[1,1],[1,0],[1,1],[1,1],[1,1]],[[1,1],[1,0],[1,1],[1,1],[1,1],[0,1]],[[0,1],[0,1],[1,0],[1,1],[1,0],[1,1]],[[1,0],[1,1],[1,1],[1,1],[1,1],[1,0]]];
